n_res = 4;
rc = [ 54, 45, 48, 38 ];
n_tasks = 30;
d = [ 2, 1, 4, 10, 10, 1, 1, 4, 10, 3, 1, 2, 3, 10, 3, 4, 10, 5, 5, 1, 6, 2, 4, 8, 5, 4, 10, 10, 4, 4 ];
rr = [| 54, 54, 54, 54, 54, 54, 54, 54, 54, 54, 54, 54, 54, 54, 54, 54, 54, 54, 54, 54, 54, 54, 54, 54, 54, 54, 54, 54, 54, 54
      | 45, 45, 45, 45, 45, 45, 45, 45, 45, 45, 45, 45, 45, 45, 45, 45, 45, 45, 45, 45, 45, 45, 45, 45, 45, 45, 45, 45, 45, 45
      | 48, 48, 48, 48, 48, 48, 48, 48, 48, 48, 48, 48, 48, 48, 48, 48, 48, 48, 48, 48, 48, 48, 48, 48, 48, 48, 48, 48, 48, 48
      | 38, 38, 38, 38, 38, 38, 38, 38, 38, 38, 38, 38, 38, 38, 38, 38, 38, 38, 38, 38, 38, 38, 38, 38, 38, 38, 38, 38, 38, 38|];
suc = [ { 6, 11, 12 },
       { 4, 5, 7 },
       { 20 },
       { 9, 17 },
       { 10, 15, 21 },
       { 14 },
       { 8, 13 },
       { 28 },
       { 29 },
       { 18, 23, 24 },
       { 30 },
       { 14, 25, 26 },
       { 19 },
       { 17 },
       { 16, 28 },
       { 20 },
       { 22 },
       { 19, 27 },
       { 28 },
       { 23, 29 },
       { 24 },
       { 29 },
       { 27 },
       { 25 },
       { 27 },
       { 30 },
       { 30 },
       {  },
       {  },
       {  } ];
